nNurses = 150;
nHours = 32;
minHours = 6;
maxHours = 8;
maxConsec = 6;
maxPresence = 13;
demand = [10, 9, 14, 12, 12, 8, 13, 15, 18, 13, 11, 13, 15, 18, 16, 16, 18, 18, 14, 11, 7, 10, 5, 6, 8, 7, 10, 10, 11, 15, 13, 15];
